Optimal - objective value 40.00000000
     11 x_1_16                  1                       0
     32 x_2_5                   1                       0
     81 x_3_35                  1                       0
     97 x_4_21                  1                       0
    107 x_5_0                   1                       0
    152 x_6_29                  1                       0
    169 x_7_11                  1                       0
    204 x_8_25                  1                       0
    231 x_9_25                  1                       0
    267 x_10_40                 1         4.99999999999999
